
Gurobi 7.0.2 (linux64, Matlab) logging started Sun Sep  2 08:55:24 2018


Gurobi 7.0.2 (linux64) logging started Sun Sep  2 08:55:24 2018

Optimize a model with 9316 rows, 9902 columns and 133424 nonzeros
Coefficient statistics:
  Matrix range     [1e+00, 2e+03]
  Objective range  [8e+00, 2e+03]
  Bounds range     [1e+00, 2e+02]
  RHS range        [1e+00, 1e+00]
Iteration    Objective       Primal Inf.    Dual Inf.      Time
       0   -2.2945240e+04   0.000000e+00   0.000000e+00      0s

Solved in 0 iterations and 0.01 seconds
Optimal objective -2.294523963e+04
